N = 10;
H = 5;
T = 2;

avail = array3d(1..N, 1..H, 1..T, [0, 8, 4, 10, 7, 8, 8, 5, 5, 6, 5, 3, 1, 0, 2, 9, 6, 5, 0, 3, 7, 0, 1, 8, 6, 5, 4, 1, 0, 1, 4, 0, 8, 0, 4, 10, 5, 6, 3, 5, 2, 5, 4, 5, 8, 10, 0, 0, 8, 6, 0, 9, 2, 4, 0, 6, 7, 10, 10, 8, 0, 9, 2, 8, 5, 3, 7, 6, 8, 9, 0, 7, 0, 7, 6, 8, 9, 6, 3, 10, 5, 3, 3, 5, 3, 5, 5, 5, 4, 3, 7, 8, 7, 2, 0, 4, 6, 4, 2, 5]);

r = array2d(1..H, 1..T, [1, 3, 0, 3, 3, 3, 2, 3, 3, 2]);
